NAME : instances/clustered-mixed-tsp/instance-23.tsp
COMMENT : No Comment
TYPE : TSP
DIMENSION: 47
EDGE_WEIGHT_TYPE : EUC_2D
NODE_COORD_SECTION
1 898 208 
2 403 1065 
3 403 988 
4 1140 54 
5 219 536 
6 22 428 
7 326 801 
8 739 577 
9 472 613 
10 -156 474 
11 919 672 
12 84 1043 
13 1261 329 
14 1239 109 
15 611 -72 
16 854 340 
17 186 756 
18 293 944 
19 433 135 
20 799 164 
21 549 525 
22 263 690 
23 219 877 
24 -35 544 
25 1019 -1 
26 350 676 
27 -21 -81 
28 520 144 
29 32 734 
30 163 815 
31 476 89 
32 686 190 
33 293 658 
34 618 687 
35 260 570 
36 164 822 
37 252 987 
38 416 291 
39 974 170 
40 263 591 
41 446 782 
42 417 635 
43 1118 -67 
44 -219 -224 
45 227 647 
46 318 921 
47 89 150 
EOF
